networks/zoo_30_168/zoo_30_168-lower.txt
Number of groups: 14
Flow 1: {1 5 0} {5 2 0} {2 17 0} 
Flow 14: {2 3 0} {3 18 0} 
Flow 23: {3 6 0} {6 15 0} {15 30 0} 
Flow 33: {15 14 0} {14 13 0} {13 28 0} 
Flow 36: {4 1 0} {1 16 0} 
Flow 51: {5 1 0} {1 4 0} {4 6 0} {6 21 0} 
Flow 61: {6 3 0} {3 2 0} {2 5 0} {5 20 0} 
Flow 76: {7 9 0} {9 24 0} 
Flow 85: {8 9 0} {9 7 0} {7 6 0} {6 4 0} {4 19 0} 
Flow 99: {9 8 0} {8 10 0} {10 25 0} 
Flow 112: {10 11 0} {11 26 0} 
Flow 114: {11 12 0} {12 13 0} {13 14 0} {14 29 0} 
Flow 147: {13 12 0} {12 11 0} {11 10 0} {10 8 0} {8 23 0} 
Flow 154: {14 15 0} {15 6 0} {6 7 0} {7 22 0} 
Time taken running everything: 1 seconds
