networks/zoo_30_168/zoo_30_168-lower.sol
<?xml version = "1.0" encoding="UTF-8" standalone="yes"?>
<CPLEXSolution version="1.2">
 <header
   problemName="networks/zoo_30_168/zoo_30_168-lower.lp"
   solutionName="incumbent"
   solutionIndex="-1"
   objectiveValue="14"
   solutionTypeValue="3"
   solutionTypeString="primal"
   solutionStatusValue="101"
   solutionStatusString="integer optimal solution"
   solutionMethodString="mip"
   primalFeasible="1"
   dualFeasible="1"
   MIPNodes="0"
   MIPIterations="0"
   writeLevel="3"/>
 <quality
   epInt="1.0000000000000001e-05"
   epRHS="9.9999999999999995e-07"
   maxIntInfeas="0"
   maxPrimalInfeas="0"
   maxX="1"
   maxSlack="1"/>
 <variables>
  <variable name="Y(1,2)" index="1" value="1"/>
  <variable name="Y(2,3)" index="31" value="1"/>
  <variable name="Y(3,4)" index="61" value="1"/>
  <variable name="Y(4,6)" index="92" value="1"/>
  <variable name="Y(5,7)" index="122" value="1"/>
  <variable name="Y(6,8)" index="152" value="1"/>
  <variable name="Y(7,9)" index="182" value="1"/>
  <variable name="Y(8,10)" index="212" value="1"/>
  <variable name="Y(9,11)" index="242" value="1"/>
  <variable name="Y(10,13)" index="273" value="1"/>
  <variable name="Y(11,14)" index="303" value="1"/>
  <variable name="Y(12,15)" index="333" value="1"/>
  <variable name="Y(13,1)" index="348" value="1"/>
  <variable name="Y(61,5)" index="1744" value="1"/>
  <variable name="X(1,4,2)" index="4873" value="1"/>
  <variable name="X(1,5,1)" index="5040" value="1"/>
  <variable name="X(1,16,13)" index="5220" value="1"/>
  <variable name="X(2,3,14)" index="5389" value="1"/>
  <variable name="X(2,5,13)" index="5556" value="1"/>
  <variable name="X(2,17,1)" index="5712" value="1"/>
  <variable name="X(3,2,24)" index="5903" value="1"/>
  <variable name="X(3,6,15)" index="6062" value="1"/>
  <variable name="X(3,18,2)" index="6217" value="1"/>
  <variable name="X(4,1,36)" index="6419" value="1"/>
  <variable name="X(4,6,2)" index="6553" value="1"/>
  <variable name="X(4,19,3)" index="6722" value="1"/>
  <variable name="X(5,1,13)" index="6900" value="1"/>
  <variable name="X(5,2,1)" index="7056" value="1"/>
  <variable name="X(5,20,61)" index="7284" value="1"/>
  <variable name="X(6,3,2)" index="7393" value="1"/>
  <variable name="X(6,4,15)" index="7574" value="1"/>
  <variable name="X(6,7,5)" index="7732" value="1"/>
  <variable name="X(6,15,9)" index="7904" value="1"/>
  <variable name="X(6,21,4)" index="8067" value="1"/>
  <variable name="X(7,6,70)" index="8301" value="1"/>
  <variable name="X(7,9,6)" index="8405" value="1"/>
  <variable name="X(7,22,5)" index="8572" value="1"/>
  <variable name="X(8,9,82)" index="8817" value="1"/>
  <variable name="X(8,10,8)" index="8911" value="1"/>
  <variable name="X(8,23,6)" index="9077" value="1"/>
  <variable name="X(9,7,82)" index="9321" value="1"/>
  <variable name="X(9,8,6)" index="9413" value="1"/>
  <variable name="X(9,24,7)" index="9582" value="1"/>
  <variable name="X(10,8,104)" index="9847" value="1"/>
  <variable name="X(10,11,78)" index="9989" value="1"/>
  <variable name="X(10,25,8)" index="10087" value="1"/>
  <variable name="X(11,10,116)" index="10363" value="1"/>
  <variable name="X(11,12,91)" index="10506" value="1"/>
  <variable name="X(11,26,9)" index="10592" value="1"/>
  <variable name="X(12,11,9)" index="10760" value="1"/>
  <variable name="X(12,13,91)" index="11010" value="1"/>
  <variable name="X(13,12,9)" index="11096" value="1"/>
  <variable name="X(13,14,114)" index="11369" value="1"/>
  <variable name="X(13,28,10)" index="11433" value="1"/>
  <variable name="X(14,13,9)" index="11600" value="1"/>
  <variable name="X(14,15,127)" index="11886" value="1"/>
  <variable name="X(14,29,11)" index="11938" value="1"/>
  <variable name="X(15,6,128)" index="12223" value="1"/>
  <variable name="X(15,14,9)" index="12272" value="1"/>
  <variable name="X(15,30,12)" index="12443" value="1"/>
 </variables>
</CPLEXSolution>
